
<<< setup


<<< generate

Version identifier: 22.1.1.0 | 2022-11-28 | 9160aff4d
CPXPARAM_TimeLimit                               1800
CPXPARAM_MIP_Tolerances_MIPGap                   0.01
Presolve has eliminated 0 rows and 18336 columns...
Tried aggregator 2 times.
MIP Presolve eliminated 385 rows and 18336 columns.
MIP Presolve modified 36672 coefficients.
Aggregator did 73344 substitutions.
Reduced MIP has 110016 rows, 165600 columns, and 330048 nonzeros.
Reduced MIP has 91872 binaries, 384 generals, 0 SOSs, and 73344 indicators.
Presolve time = 0.34 sec. (21589.48 ticks)
Probing fixed 0 vars, tightened 18336 bounds.
Probing time = 0.11 sec. (110.04 ticks)
Tried aggregator 2 times.
MIP Presolve eliminated 36672 rows and 18528 columns.
Aggregator did 18336 substitutions.
Reduced MIP has 55008 rows, 128736 columns, and 201696 nonzeros.
Reduced MIP has 73344 binaries, 18720 generals, 0 SOSs, and 73344 indicators.
Presolve time = 0.16 sec. (243.47 ticks)
Probing time = 0.04 sec. (6.72 ticks)
Tried aggregator 1 time.
Detecting symmetries...
Reduced MIP has 55008 rows, 128736 columns, and 201696 nonzeros.
Reduced MIP has 73344 binaries, 18720 generals, 0 SOSs, and 73344 indicators.
Presolve time = 0.13 sec. (186.12 ticks)
Probing time = 0.04 sec. (7.77 ticks)
Clique table members: 36672.
MIP emphasis: balance optimality and feasibility.
MIP search method: dynamic search.
Parallel mode: deterministic, using up to 8 threads.
Root relaxation solution time = 0.04 sec. (59.24 ticks)

        Nodes                                         Cuts/
   Node  Left     Objective  IInf  Best Integer    Best Bound    ItCnt     Gap

*     0     0      integral     0    20000.0000    20000.0000        0    0.00%
Elapsed time = 1.32 sec. (23022.98 ticks, tree = 0.00 MB, solutions = 1)

Root node processing (before b&c):
  Real time             =    1.34 sec. (23027.63 ticks)
Parallel b&c, 8 threads:
  Real time             =    0.00 sec. (0.00 ticks)
  Sync time (average)   =    0.00 sec.
  Wait time (average)   =    0.00 sec.
                          ------------
Total (root+branch&cut) =    1.34 sec. (23027.63 ticks)

<<< solve


OBJECTIVE: 20000

<<< post process


<<< done

